g3 2 1 0	# problem inst_sans_ref
 56 188 1 0 46	# vars, constraints, objectives, ranges, eqns
 46 1	# nonlinear constraints, objectives
 0 0	# network constraints: nonlinear, linear
 10 10 10	# nonlinear vars in constraints, objectives, both
 0 0 0 1	# linear network variables; functions; arith, flags
 0 0 0 0 0	# discrete variables: binary, integer, nonlinear (b,c,o)
 579 48	# nonzeros in Jacobian, gradients
 0 0	# max name lengths: constraints, variables
 0 0 0 0 0	# common exprs: b,c,o,c1,o1
b
0 0 1
0 0 1
0 0 1
0 0 1
0 0 1
0 0 1
0 0 1
0 0 1
0 0 1
0 0 1
0 0 1
0 0 1
0 0 1
0 0 1
0 0 1
0 0 1
0 0 1
0 0 1
0 0 1
0 0 1
0 0 1
0 0 1
0 0 1
0 0 1
0 0 1
0 0 1
0 0 1
0 0 1
0 0 1
0 0 1
0 0 1
0 0 1
0 0 1
0 0 1
0 0 1
0 0 1
0 0 1
0 0 1
0 0 1
0 0 1
0 0 1
0 0 1
0 0 1
0 0 1
0 0 1
0 0 1
0 0 1
0 0 1
0 0 1
0 0 1
0 0 1
0 0 1
0 0 1
0 0 1
0 0 1
0 0 1
r
4 0
4 0
4 0
4 0
4 0
4 0
4 0
4 0
4 0
4 0
4 0
4 0
4 0
4 0
4 0
4 0
4 0
4 0
4 0
4 0
4 0
4 0
4 0
4 0
4 0
4 0
4 0
4 0
4 0
4 0
4 0
4 0
4 0
4 0
4 0
4 0
4 0
4 0
4 0
4 0
4 0
4 0
4 0
4 0
4 0
4 0
1 7.89
1 3.76
1 4.71
1 18.18
1 0
1 0
1 0
1 0
1 0
1 0
1 0
1 0
1 0
1 0
1 0
1 0
1 0
1 0
1 0
1 0
1 0
1 0
1 0
1 0
1 0
1 0
1 0
1 0
1 0
1 0
1 0
1 0
1 0
1 0
1 0
1 0
1 0
1 0
1 0
1 0
1 0
1 0
1 0
1 0
1 0
1 0
1 0
1 0
1 0
1 0
1 0
1 0
1 0
1 0
1 0
1 0
1 0
1 0
1 0
1 0
1 0
1 0
1 0
1 0
1 0
1 0
1 0
1 0
1 0
1 0
1 0
1 0
1 0
1 0
1 0
1 0
1 0
1 0
1 0
1 0
1 0
1 0
1 0
1 0
1 0
1 0
2 -1
2 -1
2 -1
2 -1
2 -1
2 -1
2 -1
2 -1
2 -1
2 -1
2 -1
2 -1
2 -1
2 -1
2 -1
2 -1
2 -1
2 -1
2 -1
2 -1
2 -1
2 -1
2 -1
2 -1
2 -1
2 -1
2 -1
2 -1
2 -1
2 -1
2 -1
2 -1
2 -1
2 -1
2 -1
2 -1
2 -1
2 -1
2 -1
2 -1
2 -1
2 -1
2 -1
2 -1
2 -1
2 -1
2 0
2 0
2 0
2 0
2 0
2 0
2 0
2 0
2 0
2 0
C0
o16
o2
v0
v0
C1
o16
o2
v0
v3
C2
o16
o2
v0
v4
C3
o16
o2
v0
v5
C4
o16
o2
v0
v6
C5
o16
o2
v0
v7
C6
o16
o2
v0
v8
C7
o16
o2
v0
v9
C8
o16
o2
v1
v1
C9
o16
o2
v1
v2
C10
o16
o2
v1
v5
C11
o16
o2
v1
v6
C12
o16
o2
v1
v7
C13
o16
o2
v1
v8
C14
o16
o2
v1
v9
C15
o16
o2
v2
v2
C16
o16
o2
v2
v5
C17
o16
o2
v2
v6
C18
o16
o2
v2
v7
C19
o16
o2
v2
v8
C20
o16
o2
v2
v9
C21
o16
o2
v3
v3
C22
o16
o2
v3
v4
C23
o16
o2
v3
v5
C24
o16
o2
v3
v6
C25
o16
o2
v3
v7
C26
o16
o2
v3
v8
C27
o16
o2
v3
v9
C28
o16
o2
v4
v4
C29
o16
o2
v4
v5
C30
o16
o2
v4
v6
C31
o16
o2
v4
v7
C32
o16
o2
v4
v8
C33
o16
o2
v4
v9
C34
o16
o2
v5
v5
C35
o16
o2
v5
v7
C36
o16
o2
v5
v9
C37
o16
o2
v6
v6
C38
o16
o2
v6
v7
C39
o16
o2
v6
v8
C40
o16
o2
v6
v9
C41
o16
o2
v7
v7
C42
o16
o2
v7
v9
C43
o16
o2
v8
v8
C44
o16
o2
v8
v9
C45
o16
o2
v9
v9
C46
n0
C47
n0
C48
n0
C49
n0
C50
n0
C51
n0
C52
n0
C53
n0
C54
n0
C55
n0
C56
n0
C57
n0
C58
n0
C59
n0
C60
n0
C61
n0
C62
n0
C63
n0
C64
n0
C65
n0
C66
n0
C67
n0
C68
n0
C69
n0
C70
n0
C71
n0
C72
n0
C73
n0
C74
n0
C75
n0
C76
n0
C77
n0
C78
n0
C79
n0
C80
n0
C81
n0
C82
n0
C83
n0
C84
n0
C85
n0
C86
n0
C87
n0
C88
n0
C89
n0
C90
n0
C91
n0
C92
n0
C93
n0
C94
n0
C95
n0
C96
n0
C97
n0
C98
n0
C99
n0
C100
n0
C101
n0
C102
n0
C103
n0
C104
n0
C105
n0
C106
n0
C107
n0
C108
n0
C109
n0
C110
n0
C111
n0
C112
n0
C113
n0
C114
n0
C115
n0
C116
n0
C117
n0
C118
n0
C119
n0
C120
n0
C121
n0
C122
n0
C123
n0
C124
n0
C125
n0
C126
n0
C127
n0
C128
n0
C129
n0
C130
n0
C131
n0
C132
n0
C133
n0
C134
n0
C135
n0
C136
n0
C137
n0
C138
n0
C139
n0
C140
n0
C141
n0
C142
n0
C143
n0
C144
n0
C145
n0
C146
n0
C147
n0
C148
n0
C149
n0
C150
n0
C151
n0
C152
n0
C153
n0
C154
n0
C155
n0
C156
n0
C157
n0
C158
n0
C159
n0
C160
n0
C161
n0
C162
n0
C163
n0
C164
n0
C165
n0
C166
n0
C167
n0
C168
n0
C169
n0
C170
n0
C171
n0
C172
n0
C173
n0
C174
n0
C175
n0
C176
n0
C177
n0
C178
n0
C179
n0
C180
n0
C181
n0
C182
n0
C183
n0
C184
n0
C185
n0
C186
n0
C187
n0
O0 0
o54
82
o2
o2
n0.302315
v0
v0
o2
o2
n-0.081789
v0
v3
o2
o2
n0.233367
v0
v4
o2
o2
n-0.08
v0
v5
o2
o2
n0.067463
v0
v6
o2
o2
n-0.41
v0
v7
o2
o2
n-0.290018
v0
v8
o2
o2
n-0.154308
v0
v9
o2
o2
n1.080331
v1
v1
o2
o2
n0.114762
v1
v2
o2
o2
n0.20796
v1
v5
o2
o2
n0.746267
v1
v6
o2
o2
n0.728912
v1
v7
o2
o2
n-0.73
v1
v8
o2
o2
n-0.288681
v1
v9
o2
o2
n0.114762
v2
v1
o2
o2
n1.514043
v2
v2
o2
o2
n0.499728
v2
v5
o2
o2
n0.22
v2
v6
o2
o2
n0.34557
v2
v7
o2
o2
n0.5
v2
v8
o2
o2
n-0.538313
v2
v9
o2
o2
n-0.081789
v3
v0
o2
o2
n1.899972
v3
v3
o2
o2
n-0.12722
v3
v4
o2
o2
n0.39
v3
v5
o2
o2
n-0.29
v3
v6
o2
o2
n0.644844
v3
v7
o2
o2
n0.667875
v3
v8
o2
o2
n-0.540353
v3
v9
o2
o2
n0.233367
v4
v0
o2
o2
n-0.12722
v4
v3
o2
o2
n1.490232
v4
v4
o2
o2
n-0.25
v4
v5
o2
o2
n0.435722
v4
v6
o2
o2
n-0.806769
v4
v7
o2
o2
n-0.459081
v4
v8
o2
o2
n0.592762
v4
v9
o2
o2
n-0.08
v5
v0
o2
o2
n0.20796
v5
v1
o2
o2
n0.499728
v5
v2
o2
o2
n0.39
v5
v3
o2
o2
n-0.25
v5
v4
o2
o2
n1.039831
v5
v5
o2
o2
n0.201743
v5
v7
o2
o2
n-0.30971
v5
v9
o2
o2
n0.067463
v6
v0
o2
o2
n0.746267
v6
v1
o2
o2
n0.22
v6
v2
o2
o2
n-0.29
v6
v3
o2
o2
n0.435722
v6
v4
o2
o2
n0.836048
v6
v6
o2
o2
n0.022417
v6
v7
o2
o2
n-0.413381
v6
v8
o2
o2
n-0.025321
v6
v9
o2
o2
n-0.41
v7
v0
o2
o2
n0.728912
v7
v1
o2
o2
n0.34557
v7
v2
o2
o2
n0.644844
v7
v3
o2
o2
n-0.806769
v7
v4
o2
o2
n0.201743
v7
v5
o2
o2
n0.022417
v7
v6
o2
o2
n2.205678
v7
v7
o2
o2
n-0.159117
v7
v9
o2
o2
n-0.290018
v8
v0
o2
o2
n-0.73
v8
v1
o2
o2
n0.5
v8
v2
o2
o2
n0.667875
v8
v3
o2
o2
n-0.459081
v8
v4
o2
o2
n-0.413381
v8
v6
o2
o2
n1.700283
v8
v8
o2
o2
n-0.084238
v8
v9
o2
o2
n-0.154308
v9
v0
o2
o2
n-0.288681
v9
v1
o2
o2
n-0.538313
v9
v2
o2
o2
n-0.540353
v9
v3
o2
o2
n0.592762
v9
v4
o2
o2
n-0.30971
v9
v5
o2
o2
n-0.025321
v9
v6
o2
o2
n-0.159117
v9
v7
o2
o2
n-0.084238
v9
v8
o2
o2
n1.658237
v9
v9
k55
28
54
80
109
138
167
199
231
260
295
299
303
307
315
323
331
339
347
351
355
363
371
379
387
395
399
407
415
423
431
439
443
447
455
463
471
479
487
491
499
507
515
523
531
535
539
543
547
551
555
559
563
567
571
575
J0 2
0 0
10 1
J1 3
0 0
3 0
11 1
J2 3
0 0
4 0
12 1
J3 3
0 0
5 0
13 1
J4 3
0 0
6 0
14 1
J5 3
0 0
7 0
15 1
J6 3
0 0
8 0
16 1
J7 3
0 0
9 0
17 1
J8 2
1 0
18 1
J9 3
1 0
2 0
19 1
J10 3
1 0
5 0
20 1
J11 3
1 0
6 0
21 1
J12 3
1 0
7 0
22 1
J13 3
1 0
8 0
23 1
J14 3
1 0
9 0
24 1
J15 2
2 0
25 1
J16 3
2 0
5 0
26 1
J17 3
2 0
6 0
27 1
J18 3
2 0
7 0
28 1
J19 3
2 0
8 0
29 1
J20 3
2 0
9 0
30 1
J21 2
3 0
31 1
J22 3
3 0
4 0
32 1
J23 3
3 0
5 0
33 1
J24 3
3 0
6 0
34 1
J25 3
3 0
7 0
35 1
J26 3
3 0
8 0
36 1
J27 3
3 0
9 0
37 1
J28 2
4 0
38 1
J29 3
4 0
5 0
39 1
J30 3
4 0
6 0
40 1
J31 3
4 0
7 0
41 1
J32 3
4 0
8 0
42 1
J33 3
4 0
9 0
43 1
J34 2
5 0
44 1
J35 3
5 0
7 0
45 1
J36 3
5 0
9 0
46 1
J37 2
6 0
47 1
J38 3
6 0
7 0
48 1
J39 3
6 0
8 0
49 1
J40 3
6 0
9 0
50 1
J41 2
7 0
51 1
J42 3
7 0
9 0
52 1
J43 2
8 0
53 1
J44 3
8 0
9 0
54 1
J45 2
9 0
55 1
J46 34
1 -0.13
2 0.09
3 -0.15
4 -0.02
5 0.29
6 -0.06
7 0.61
8 -0.29
9 0.23
13 1.78
14 1.71
15 -1.15
16 1.2
17 -1.66
20 1.05
21 -1.42
22 -1.66
23 1.25
24 -0.41
26 1.16
27 0.82
28 -0.54
29 0.46
30 -1.63
33 1.52
34 -1.79
35 0.88
36 0.09
37 0.28
39 1.37
40 0.26
41 -0.35
42 1.99
43 1.19
J47 35
0 0.55
1 0.01
2 -0.52
3 0.26
4 0.21
5 -0.75
6 0.93
7 0.88
8 0.35
9 0.67
13 1.48
14 1.84
15 1.43
16 -1.04
17 -1.11
20 -1.62
21 1.26
22 -1.52
23 -0.93
24 -1.6
26 -0.48
27 -1.84
28 1.76
29 -0.57
30 -1.99
33 -0.1
34 -1.7
35 -1.07
36 1.7
37 1.98
39 1.85
40 -1.99
41 0.22
42 1.32
43 -1.02
J48 35
0 0.39
1 0.3
2 0.74
3 -0.16
4 -0.9
5 -0.3
6 0.08
7 -0.76
8 0.98
9 -0.03
13 -1.27
14 1.76
15 0.16
16 0.69
17 -0.04
20 0.6
21 -1.31
22 1.18
23 1.39
24 0.14
26 -1.42
27 0.17
28 -1.47
29 1.27
30 -1.79
33 0.01
34 -0.29
35 0.01
36 -1.22
37 -1.45
39 0.14
40 -0.67
41 -0.2
42 -0.51
43 1.71
J49 35
0 -0.5
1 -0.23
2 0.24
3 -0.21
4 0.73
5 0.16
6 0.05
7 0.45
8 0.79
9 0.82
13 -0.07
14 -1.51
15 0.28
16 -0.7
17 -0.42
20 -0.66
21 -0.68
22 -1.57
23 1.77
24 -1.75
26 -1.35
27 -1.67
28 1.77
29 -1.7
30 1.64
33 1.67
34 1.85
35 -0.78
36 1.55
37 1.9
39 1.2
40 -1.02
41 -0.83
42 1.33
43 -1.85
J50 2
0 -1
10 1
J51 2
0 -1
11 1
J52 2
0 -1
12 1
J53 2
0 -1
13 1
J54 2
0 -1
14 1
J55 2
0 -1
15 1
J56 2
0 -1
16 1
J57 2
0 -1
17 1
J58 2
1 -1
18 1
J59 2
1 -1
19 1
J60 2
1 -1
20 1
J61 2
1 -1
21 1
J62 2
1 -1
22 1
J63 2
1 -1
23 1
J64 2
1 -1
24 1
J65 2
2 -1
25 1
J66 2
2 -1
26 1
J67 2
2 -1
27 1
J68 2
2 -1
28 1
J69 2
2 -1
29 1
J70 2
2 -1
30 1
J71 2
3 -1
31 1
J72 2
3 -1
32 1
J73 2
3 -1
33 1
J74 2
3 -1
34 1
J75 2
3 -1
35 1
J76 2
3 -1
36 1
J77 2
3 -1
37 1
J78 2
4 -1
38 1
J79 2
4 -1
39 1
J80 2
4 -1
40 1
J81 2
4 -1
41 1
J82 2
4 -1
42 1
J83 2
4 -1
43 1
J84 2
5 -1
44 1
J85 2
5 -1
45 1
J86 2
5 -1
46 1
J87 2
6 -1
47 1
J88 2
6 -1
48 1
J89 2
6 -1
49 1
J90 2
6 -1
50 1
J91 2
7 -1
51 1
J92 2
7 -1
52 1
J93 2
8 -1
53 1
J94 2
8 -1
54 1
J95 2
9 -1
55 1
J96 2
3 -1
11 1
J97 2
4 -1
12 1
J98 2
5 -1
13 1
J99 2
6 -1
14 1
J100 2
7 -1
15 1
J101 2
8 -1
16 1
J102 2
9 -1
17 1
J103 2
2 -1
19 1
J104 2
5 -1
20 1
J105 2
6 -1
21 1
J106 2
7 -1
22 1
J107 2
8 -1
23 1
J108 2
9 -1
24 1
J109 2
5 -1
26 1
J110 2
6 -1
27 1
J111 2
7 -1
28 1
J112 2
8 -1
29 1
J113 2
9 -1
30 1
J114 2
4 -1
32 1
J115 2
5 -1
33 1
J116 2
6 -1
34 1
J117 2
7 -1
35 1
J118 2
8 -1
36 1
J119 2
9 -1
37 1
J120 2
5 -1
39 1
J121 2
6 -1
40 1
J122 2
7 -1
41 1
J123 2
8 -1
42 1
J124 2
9 -1
43 1
J125 2
7 -1
45 1
J126 2
9 -1
46 1
J127 2
7 -1
48 1
J128 2
8 -1
49 1
J129 2
9 -1
50 1
J130 2
9 -1
52 1
J131 2
9 -1
54 1
J132 2
0 -2
10 1
J133 3
0 -1
3 -1
11 1
J134 3
0 -1
4 -1
12 1
J135 3
0 -1
5 -1
13 1
J136 3
0 -1
6 -1
14 1
J137 3
0 -1
7 -1
15 1
J138 3
0 -1
8 -1
16 1
J139 3
0 -1
9 -1
17 1
J140 2
1 -2
18 1
J141 3
1 -1
2 -1
19 1
J142 3
1 -1
5 -1
20 1
J143 3
1 -1
6 -1
21 1
J144 3
1 -1
7 -1
22 1
J145 3
1 -1
8 -1
23 1
J146 3
1 -1
9 -1
24 1
J147 2
2 -2
25 1
J148 3
2 -1
5 -1
26 1
J149 3
2 -1
6 -1
27 1
J150 3
2 -1
7 -1
28 1
J151 3
2 -1
8 -1
29 1
J152 3
2 -1
9 -1
30 1
J153 2
3 -2
31 1
J154 3
3 -1
4 -1
32 1
J155 3
3 -1
5 -1
33 1
J156 3
3 -1
6 -1
34 1
J157 3
3 -1
7 -1
35 1
J158 3
3 -1
8 -1
36 1
J159 3
3 -1
9 -1
37 1
J160 2
4 -2
38 1
J161 3
4 -1
5 -1
39 1
J162 3
4 -1
6 -1
40 1
J163 3
4 -1
7 -1
41 1
J164 3
4 -1
8 -1
42 1
J165 3
4 -1
9 -1
43 1
J166 2
5 -2
44 1
J167 3
5 -1
7 -1
45 1
J168 3
5 -1
9 -1
46 1
J169 2
6 -2
47 1
J170 3
6 -1
7 -1
48 1
J171 3
6 -1
8 -1
49 1
J172 3
6 -1
9 -1
50 1
J173 2
7 -2
51 1
J174 3
7 -1
9 -1
52 1
J175 2
8 -2
53 1
J176 3
8 -1
9 -1
54 1
J177 2
9 -2
55 1
J178 2
0 -1
10 1
J179 2
1 -1
18 1
J180 2
2 -1
25 1
J181 2
3 -1
31 1
J182 2
4 -1
38 1
J183 2
5 -1
44 1
J184 2
6 -1
47 1
J185 2
7 -1
51 1
J186 2
8 -1
53 1
J187 2
9 -1
55 1
G0 48
0 0.51
1 0.84
2 -0.19
3 -0.06
4 0.31
5 -0.77
6 -0.67
7 0.55
8 0.41
9 -0.92
10 -0.302315
11 0.163577
12 -0.466735
14 0.835074
16 -0.359963
17 0.008615
18 -1.080331
19 -0.229525
20 0.37408
21 0.297465
22 0.482177
24 -0.712637
25 -1.514043
26 0.200545
28 0.55886
30 -0.723373
31 -1.899972
32 0.25444
35 0.390312
36 0.05425
37 -0.539294
38 -1.490232
40 0.238557
41 -0.106462
42 -0.391837
43 0.344476
44 -1.039831
45 -0.403486
46 0.619421
47 -0.836048
48 -0.044833
49 0.826762
50 0.050641
51 -2.205678
52 0.318234
53 -1.700283
54 0.168475
55 -1.658237
